<number of tasks>
89

<cycle time>
11

<task times>
1 1
2 2
3 3
4 4
5 5
6 6
7 7
8 8
9 9
10 10
11 1
12 2
13 3
14 4
15 5
16 6
17 7
18 8
19 9
20 10
21 1
22 2
23 3
24 4
25 5
26 6
27 7
28 8
29 9
30 10
31 1
32 2
33 3
34 4
35 5
36 6
37 7
38 8
39 9
40 10
41 1
42 2
43 3
44 4
45 5
46 6
47 7
48 8
49 9
50 10
51 1
52 2
53 3
54 4
55 5
56 6
57 7
58 8
59 9
60 10
61 1
62 2
63 3
64 4
65 5
66 6
67 7
68 8
69 9
70 10
71 1
72 2
73 3
74 4
75 5
76 6
77 7
78 8
79 9
80 10
81 1
82 2
83 3
84 4
85 5
86 6
87 7
88 8
89 9

<precedence relations>
1,2
2,3
3,4
4,5
4,6
4,7
4,8
4,9
5,10
6,11
7,12
8,18
9,18
10,14
11,12
12,13
13,14
14,15
14,16
15,17
16,54
17,18
18,19
18,20
19,22
20,21
20,28
21,54
22,23
23,24
24,25
25,26
25,27
25,29
26,37
27,33
28,29
29,31
30,54
31,32
32,33
33,34
34,35
35,36
35,37
36,38
37,38
38,39
39,40
39,41
39,42
39,43
40,44
41,53
42,53
43,45
44,52
45,46
46,47
47,48
47,49
49,50
50,51
51,52
52,53
53,68
53,69
53,70
53,71
54,55
55,56
56,57
57,58
57,59
57,60
57,61
57,62
57,63
57,64
57,65
57,66
58,67
59,67
60,67
61,67
62,67
63,67
64,67
65,67
66,67
67,73
68,72
69,72
70,72
71,73
72,78
72,80
73,74
74,75
74,76
75,77
76,81
77,78
78,79
79,81
80,81
81,82
81,84
81,85
82,83
83,86
84,86
85,86
86,87
87,88
87,89

<setup times forward>
1,30:2
2,30:2
3,30:2
4,5:2
4,6:2
4,8:1
4,30:2
5,7:2
5,8:1
5,9:2
5,10:1
5,11:2
5,12:2
5,13:1
5,30:4
6,7:2
6,8:1
6,9:2
6,10:1
6,11:2
6,30:4
7,5:2
7,6:2
7,8:1
7,10:1
7,30:2
8,5:1
8,6:1
8,7:1
8,9:1
8,11:1
8,12:1
8,14:2
8,15:2
8,17:2
8,18:1
8,30:3
9,5:2
9,6:2
9,8:1
9,10:1
9,13:1
9,14:1
9,15:1
9,16:1
9,17:1
9,18:2
9,30:2
10,6:1
10,7:1
10,9:1
10,11:1
10,12:1
10,14:2
10,30:3
11,5:2
11,8:1
11,10:1
11,30:2
12,5:2
12,8:1
12,10:1
12,13:1
12,30:2
13,5:1
13,9:1
13,14:2
13,30:3
14,8:2
14,9:1
14,16:2
14,30:1
15,8:2
15,9:1
15,16:2
15,30:1
16,9:1
16,15:2
16,17:2
16,18:1
16,19:3
16,20:1
16,21:1
16,22:3
16,23:1
16,24:1
16,26:1
16,27:1
16,28:1
16,29:3
16,30:3
16,31:3
16,32:1
16,33:1
16,34:1
16,35:1
16,36:1
16,37:2
16,38:1
16,39:1
16,40:1
16,41:3
16,42:3
16,43:1
16,44:1
16,45:3
16,46:3
16,47:3
16,48:3
16,50:1
16,51:1
16,52:3
16,54:1
16,69:3
16,70:1
16,71:1
16,72:3
16,80:3
17,8:2
17,9:1
17,16:2
17,18:3
17,30:1
18,16:1
18,19:4
18,20:2
18,30:4
19,16:3
19,20:2
19,21:2
19,28:4
19,54:4
19,55:3
19,56:3
19,57:4
19,58:2
19,59:2
19,62:2
19,63:4
19,64:1
19,65:4
19,66:4
19,67:2
20,16:1
20,19:2
20,22:2
20,25:1
20,27:2
20,28:2
20,30:2
21,16:1
21,19:2
21,22:2
21,25:1
21,27:2
21,28:2
21,29:2
21,30:2
21,31:2
21,34:2
21,35:2
21,36:2
21,37:1
21,38:2
21,40:2
21,41:2
21,42:2
21,45:2
21,46:2
21,47:2
21,48:2
21,49:1
21,52:2
21,53:1
21,54:2
21,68:1
21,69:2
21,70:2
21,72:2
21,80:2
22,16:3
22,20:2
22,21:2
22,23:2
22,28:4
22,54:4
22,55:3
22,56:3
22,57:4
22,58:2
22,59:2
22,62:2
22,63:4
22,64:1
22,65:4
22,66:4
22,67:2
23,16:1
23,28:2
23,30:2
23,54:2
23,55:1
23,56:1
23,57:2
23,60:2
23,61:2
23,63:2
23,64:1
23,65:2
23,66:2
24,16:1
24,25:1
24,28:2
24,30:2
24,54:2
24,55:1
24,56:1
24,57:2
24,60:2
24,61:2
24,63:2
24,64:1
24,65:2
24,66:2
25,20:1
25,21:1
25,26:1
25,27:1
25,28:1
25,29:3
25,30:3
25,54:1
25,57:1
25,58:1
25,59:1
25,60:3
25,61:3
25,62:1
25,63:1
25,64:2
25,65:1
25,66:1
25,67:1
26,16:1
26,27:2
26,28:2
26,29:2
26,30:2
26,31:2
26,34:2
26,35:2
26,36:2
26,37:1
26,54:2
26,55:1
26,56:1
26,57:2
26,60:2
26,61:2
26,63:2
26,64:1
26,65:2
26,66:2
27,16:1
27,20:2
27,21:2
27,26:2
27,29:4
27,30:4
27,31:4
27,32:2
27,33:2
27,55:1
27,56:1
27,58:2
27,59:2
27,60:4
27,61:4
27,62:2
27,64:3
27,67:2
28,16:1
28,19:4
28,21:2
28,22:4
28,23:2
28,24:2
28,25:1
28,26:2
28,29:4
28,30:4
28,55:1
28,56:1
28,58:2
28,59:2
28,60:4
28,61:4
28,62:2
28,64:3
28,67:2
29,16:3
29,21:2
29,26:2
29,27:4
29,54:4
29,55:3
29,56:3
29,57:4
29,58:2
29,59:2
29,62:2
29,63:4
29,64:1
29,65:4
29,66:4
29,67:2
30,1:2
30,2:2
30,3:2
30,4:2
30,5:4
30,6:4
30,7:2
30,8:3
30,9:2
30,10:3
30,11:2
30,12:2
30,13:3
30,14:1
30,15:1
30,16:3
30,17:1
30,18:4
30,20:2
30,21:2
30,23:2
30,24:2
30,25:3
30,26:2
30,27:4
30,28:4
30,32:2
30,33:2
30,34:4
30,35:4
30,36:4
30,37:1
30,38:4
30,39:2
30,40:4
30,43:2
30,44:2
30,49:3
30,50:2
30,51:2
30,53:3
30,54:4
30,68:3
30,70:4
30,71:2
31,16:3
31,21:2
31,26:2
31,27:4
31,32:2
31,54:4
31,55:3
31,56:3
31,57:4
31,58:2
31,59:2
31,62:2
31,63:4
31,64:1
31,65:4
31,66:4
31,67:2
32,16:1
32,27:2
32,30:2
32,54:2
32,55:1
32,56:1
32,57:2
32,60:2
32,61:2
32,63:2
32,64:1
32,65:2
32,66:2
33,16:1
33,30:2
33,34:2
33,54:2
33,55:1
33,56:1
33,57:2
33,60:2
33,61:2
33,63:2
33,64:1
33,65:2
33,66:2
34,16:1
34,21:2
34,26:2
34,30:4
34,55:1
34,56:1
34,58:2
34,59:2
34,60:4
34,61:4
34,62:2
34,64:3
34,67:2
35,16:1
35,21:2
35,26:2
35,30:4
35,37:3
35,55:1
35,56:1
35,58:2
35,59:2
35,60:4
35,61:4
35,62:2
35,64:3
35,67:2
36,16:1
36,21:2
36,26:2
36,30:4
36,37:3
36,55:1
36,56:1
36,58:2
36,59:2
36,60:4
36,61:4
36,62:2
36,64:3
36,67:2
37,16:2
37,21:1
37,30:1
37,36:3
37,38:3
37,54:3
37,55:2
37,56:2
37,57:3
37,58:1
37,59:1
37,60:1
37,61:1
37,62:1
37,63:3
37,65:3
37,66:3
37,67:1
38,16:1
38,21:2
38,30:4
38,39:2
38,55:1
38,56:1
38,58:2
38,59:2
38,60:4
38,61:4
38,62:2
38,64:3
38,67:2
39,16:1
39,30:2
39,40:2
39,41:2
39,42:2
39,54:2
39,55:1
39,56:1
39,57:2
39,60:2
39,61:2
39,63:2
39,64:1
39,65:2
39,66:2
40,16:1
40,21:2
40,30:4
40,41:4
40,42:4
40,43:2
40,44:2
40,45:4
40,46:4
40,47:4
40,48:4
40,49:1
40,50:2
40,51:2
40,55:1
40,56:1
40,58:2
40,59:2
40,60:4
40,61:4
40,62:2
40,64:3
40,67:2
41,16:3
41,21:2
41,40:4
41,43:2
41,44:2
41,49:3
41,50:2
41,51:2
41,53:3
41,54:4
41,55:3
41,56:3
41,57:4
41,58:2
41,59:2
41,62:2
41,63:4
41,64:1
41,65:4
41,66:4
41,67:2
42,16:3
42,21:2
42,40:4
42,43:2
42,44:2
42,49:3
42,50:2
42,51:2
42,53:3
42,54:4
42,55:3
42,56:3
42,57:4
42,58:2
42,59:2
42,62:2
42,63:4
42,64:1
42,65:4
42,66:4
42,67:2
43,16:1
43,30:2
43,40:2
43,41:2
43,42:2
43,45:2
43,54:2
43,55:1
43,56:1
43,57:2
43,60:2
43,61:2
43,63:2
43,64:1
43,65:2
43,66:2
44,16:1
44,30:2
44,41:2
44,42:2
44,45:2
44,46:2
44,47:2
44,48:2
44,49:1
44,52:2
44,54:2
44,55:1
44,56:1
44,57:2
44,60:2
44,61:2
44,63:2
44,64:1
44,65:2
44,66:2
45,16:3
45,21:2
45,40:4
45,44:2
45,54:4
45,55:3
45,56:3
45,57:4
45,58:2
45,59:2
45,62:2
45,63:4
45,64:1
45,65:4
45,66:4
45,67:2
46,16:3
46,21:2
46,40:4
46,44:2
46,54:4
46,55:3
46,56:3
46,57:4
46,58:2
46,59:2
46,62:2
46,63:4
46,64:1
46,65:4
46,66:4
46,67:2
47,16:3
47,21:2
47,40:4
47,44:2
47,49:3
47,54:4
47,55:3
47,56:3
47,57:4
47,58:2
47,59:2
47,62:2
47,63:4
47,64:1
47,65:4
47,66:4
47,67:2
48,16:3
48,21:2
48,40:4
48,44:2
48,49:3
48,50:2
48,51:2
48,53:3
48,54:4
48,55:3
48,56:3
48,57:4
48,58:2
48,59:2
48,62:2
48,63:4
48,64:1
48,65:4
48,66:4
48,67:2
48,68:3
48,70:4
48,71:2
48,73:2
48,74:2
48,75:1
48,76:1
48,78:3
48,79:2
48,81:2
48,82:2
48,83:2
48,84:2
48,85:3
48,86:3
48,87:1
48,88:1
48,89:2
49,21:1
49,30:3
49,40:1
49,41:3
49,42:3
49,44:1
49,48:3
49,50:1
49,54:1
49,57:1
49,58:1
49,59:1
49,60:3
49,61:3
49,62:1
49,63:1
49,64:2
49,65:1
49,66:1
49,67:1
50,16:1
50,30:2
50,40:2
50,41:2
50,42:2
50,48:2
50,54:2
50,55:1
50,56:1
50,57:2
50,60:2
50,61:2
50,63:2
50,64:1
50,65:2
50,66:2
51,16:1
51,30:2
51,40:2
51,41:2
51,42:2
51,48:2
51,52:2
51,54:2
51,55:1
51,56:1
51,57:2
51,60:2
51,61:2
51,63:2
51,64:1
51,65:2
51,66:2
52,16:3
52,21:2
52,53:3
52,54:4
52,55:3
52,56:3
52,57:4
52,58:2
52,59:2
52,62:2
52,63:4
52,64:1
52,65:4
52,66:4
52,67:2
53,21:1
53,30:3
53,48:3
53,54:1
53,57:1
53,58:1
53,59:1
53,60:3
53,61:3
53,62:1
53,63:1
53,64:2
53,65:1
53,66:1
53,67:1
53,69:3
53,70:1
53,71:1
54,19:4
54,22:4
54,23:2
54,24:2
54,25:1
54,26:2
54,29:4
54,31:4
54,32:2
54,33:2
54,37:3
54,39:2
54,41:4
54,42:4
54,43:2
54,44:2
54,45:4
54,46:4
54,47:4
54,48:4
54,49:1
54,50:2
54,51:2
54,52:4
54,53:1
54,55:1
54,68:1
54,69:4
54,71:2
54,72:4
54,80:4
55,19:3
55,22:3
55,23:1
55,24:1
55,26:1
55,27:1
55,28:1
55,29:3
55,31:3
55,32:1
55,33:1
55,34:1
55,35:1
55,36:1
55,37:2
55,38:1
55,39:1
55,40:1
55,41:3
55,42:3
55,43:1
55,44:1
55,45:3
55,46:3
55,47:3
55,48:3
55,50:1
55,51:1
55,52:3
55,69:3
55,70:1
55,71:1
55,72:3
55,80:3
56,19:3
56,22:3
56,23:1
56,24:1
56,26:1
56,27:1
56,28:1
56,29:3
56,31:3
56,32:1
56,33:1
56,34:1
56,35:1
56,36:1
56,37:2
56,38:1
56,39:1
56,40:1
56,41:3
56,42:3
56,43:1
56,44:1
56,45:3
56,46:3
56,47:3
56,48:3
56,50:1
56,51:1
56,52:3
56,57:1
56,69:3
56,70:1
56,71:1
56,72:3
56,80:3
57,19:4
57,22:4
57,23:2
57,24:2
57,25:1
57,26:2
57,29:4
57,31:4
57,32:2
57,33:2
57,37:3
57,39:2
57,41:4
57,42:4
57,43:2
57,44:2
57,45:4
57,46:4
57,47:4
57,48:4
57,49:1
57,50:2
57,51:2
57,52:4
57,53:1
57,58:2
57,59:2
57,60:4
57,61:4
57,62:2
57,64:3
57,68:1
57,69:4
57,71:2
57,72:4
57,80:4
58,19:2
58,22:2
58,25:1
58,27:2
58,28:2
58,29:2
58,31:2
58,34:2
58,35:2
58,36:2
58,37:1
58,38:2
58,40:2
58,41:2
58,42:2
58,45:2
58,46:2
58,47:2
58,48:2
58,49:1
58,52:2
58,53:1
58,60:2
58,61:2
58,63:2
58,64:1
58,65:2
58,66:2
58,68:1
58,69:2
58,70:2
58,72:2
58,80:2
59,19:2
59,22:2
59,25:1
59,27:2
59,28:2
59,29:2
59,31:2
59,34:2
59,35:2
59,36:2
59,37:1
59,38:2
59,40:2
59,41:2
59,42:2
59,45:2
59,46:2
59,47:2
59,48:2
59,49:1
59,52:2
59,53:1
59,60:2
59,61:2
59,63:2
59,64:1
59,65:2
59,66:2
59,68:1
59,69:2
59,70:2
59,72:2
59,80:2
60,23:2
60,24:2
60,25:3
60,26:2
60,27:4
60,28:4
60,32:2
60,33:2
60,34:4
60,35:4
60,36:4
60,37:1
60,38:4
60,39:2
60,40:4
60,43:2
60,44:2
60,49:3
60,50:2
60,51:2
60,53:3
60,58:2
60,59:2
60,62:2
60,63:4
60,64:1
60,65:4
60,66:4
60,67:2
60,68:3
60,70:4
60,71:2
61,23:2
61,24:2
61,25:3
61,26:2
61,27:4
61,28:4
61,32:2
61,33:2
61,34:4
61,35:4
61,36:4
61,37:1
61,38:4
61,39:2
61,40:4
61,43:2
61,44:2
61,49:3
61,50:2
61,51:2
61,53:3
61,58:2
61,59:2
61,62:2
61,63:4
61,64:1
61,65:4
61,66:4
61,67:2
61,68:3
61,70:4
61,71:2
62,19:2
62,22:2
62,25:1
62,27:2
62,28:2
62,29:2
62,31:2
62,34:2
62,35:2
62,36:2
62,37:1
62,38:2
62,40:2
62,41:2
62,42:2
62,45:2
62,46:2
62,47:2
62,48:2
62,49:1
62,52:2
62,53:1
62,60:2
62,61:2
62,63:2
62,64:1
62,65:2
62,66:2
62,68:1
62,69:2
62,70:2
62,72:2
62,80:2
63,19:4
63,22:4
63,23:2
63,24:2
63,25:1
63,26:2
63,29:4
63,31:4
63,32:2
63,33:2
63,37:3
63,39:2
63,41:4
63,42:4
63,43:2
63,44:2
63,45:4
63,46:4
63,47:4
63,48:4
63,49:1
63,50:2
63,51:2
63,52:4
63,53:1
63,58:2
63,59:2
63,60:4
63,61:4
63,62:2
63,64:3
63,67:2
63,68:1
63,69:4
63,71:2
63,72:4
63,80:4
64,19:1
64,22:1
64,23:1
64,24:1
64,25:2
64,26:1
64,27:3
64,28:3
64,29:1
64,31:1
64,32:1
64,33:1
64,34:3
64,35:3
64,36:3
64,38:3
64,39:1
64,40:3
64,41:1
64,42:1
64,43:1
64,44:1
64,45:1
64,46:1
64,47:1
64,48:1
64,49:2
64,50:1
64,51:1
64,52:1
64,53:2
64,58:1
64,59:1
64,60:1
64,61:1
64,62:1
64,63:3
64,65:3
64,66:3
64,67:1
64,68:2
64,69:1
64,70:3
64,71:1
64,72:1
64,80:1
65,19:4
65,22:4
65,23:2
65,24:2
65,25:1
65,26:2
65,29:4
65,31:4
65,32:2
65,33:2
65,37:3
65,39:2
65,41:4
65,42:4
65,43:2
65,44:2
65,45:4
65,46:4
65,47:4
65,48:4
65,49:1
65,50:2
65,51:2
65,52:4
65,53:1
65,58:2
65,59:2
65,60:4
65,61:4
65,62:2
65,64:3
65,67:2
65,68:1
65,69:4
65,71:2
65,72:4
65,80:4
66,19:4
66,22:4
66,23:2
66,24:2
66,25:1
66,26:2
66,29:4
66,31:4
66,32:2
66,33:2
66,37:3
66,39:2
66,41:4
66,42:4
66,43:2
66,44:2
66,45:4
66,46:4
66,47:4
66,48:4
66,49:1
66,50:2
66,51:2
66,52:4
66,53:1
66,58:2
66,59:2
66,60:4
66,61:4
66,62:2
66,64:3
66,67:2
66,68:1
66,69:4
66,71:2
66,72:4
66,80:4
67,19:2
67,22:2
67,25:1
67,27:2
67,28:2
67,29:2
67,31:2
67,34:2
67,35:2
67,36:2
67,37:1
67,38:2
67,40:2
67,41:2
67,42:2
67,45:2
67,46:2
67,47:2
67,48:2
67,49:1
67,52:2
67,53:1
67,68:1
67,69:2
67,70:2
67,72:2
67,80:2
68,21:1
68,30:3
68,48:3
68,54:1
68,57:1
68,58:1
68,59:1
68,60:3
68,61:3
68,62:1
68,63:1
68,64:2
68,65:1
68,66:1
68,67:1
68,69:3
68,70:1
68,71:1
68,72:3
68,73:1
68,74:1
68,75:2
68,76:2
68,77:3
69,16:3
69,21:2
69,54:4
69,55:3
69,56:3
69,57:4
69,58:2
69,59:2
69,62:2
69,63:4
69,64:1
69,65:4
69,66:4
69,67:2
69,68:3
69,70:4
69,71:2
69,73:2
69,74:2
69,75:1
69,76:1
70,16:1
70,21:2
70,30:4
70,48:4
70,55:1
70,56:1
70,58:2
70,59:2
70,60:4
70,61:4
70,62:2
70,64:3
70,67:2
70,68:1
70,69:4
70,71:2
70,72:4
70,73:2
70,74:2
70,75:3
70,76:3
70,77:4
71,16:1
71,30:2
71,48:2
71,54:2
71,55:1
71,56:1
71,57:2
71,60:2
71,61:2
71,63:2
71,64:1
71,65:2
71,66:2
71,68:1
71,69:2
71,70:2
71,72:2
71,80:2
72,16:3
72,21:2
72,54:4
72,55:3
72,56:3
72,57:4
72,58:2
72,59:2
72,62:2
72,63:4
72,64:1
72,65:4
72,66:4
72,67:2
72,71:2
72,73:2
72,74:2
72,75:1
72,76:1
72,78:3
73,48:2
73,68:1
73,69:2
73,70:2
73,72:2
73,80:2
74,48:2
74,68:1
74,69:2
74,70:2
74,72:2
74,75:1
74,76:1
74,80:2
75,48:1
75,68:2
75,69:1
75,70:3
75,72:1
75,77:1
75,80:1
76,48:1
76,68:2
76,69:1
76,70:3
76,72:1
76,77:1
76,78:2
76,79:1
76,80:1
76,81:1
77,68:3
77,70:4
77,76:1
77,78:3
78,48:3
78,76:2
78,79:1
78,80:3
79,48:2
79,76:1
79,80:2
80,16:3
80,21:2
80,54:4
80,55:3
80,56:3
80,57:4
80,58:2
80,59:2
80,62:2
80,63:4
80,64:1
80,65:4
80,66:4
80,67:2
80,71:2
80,73:2
80,74:2
80,75:1
80,76:1
80,78:3
80,79:2
80,81:2
81,48:2
81,85:1
82,48:2
82,85:1
83,48:2
83,85:1
83,86:1
84,48:2
84,85:1
84,86:1
85,48:3
85,82:1
85,83:1
85,84:1
86,48:3
86,87:2
87,48:1
87,89:1
88,48:1
88,89:1
89,48:2
89,88:1

<setup times backward>
1,30:2
2,30:2
3,30:2
4,30:2
5,1:2
5,2:2
5,3:2
5,4:2
5,7:2
5,8:1
5,9:2
5,11:2
5,12:2
5,13:1
5,30:4
6,1:2
6,2:2
6,3:2
6,4:2
6,7:2
6,8:1
6,9:2
6,10:1
6,30:4
7,30:2
8,1:1
8,2:1
8,3:1
8,4:1
8,7:1
8,9:1
8,11:1
8,12:1
8,14:2
8,15:2
8,17:2
8,30:3
9,14:1
9,15:1
9,17:1
9,30:2
10,1:1
10,2:1
10,3:1
10,4:1
10,7:1
10,9:1
10,11:1
10,12:1
10,30:3
11,30:2
12,30:2
13,1:1
13,2:1
13,3:1
13,4:1
13,7:1
13,9:1
13,11:1
13,12:1
13,30:3
14,30:1
15,30:1
16,1:1
16,2:1
16,3:1
16,4:1
16,7:1
16,9:1
16,11:1
16,12:1
16,14:2
16,15:2
16,17:2
16,19:3
16,20:1
16,21:1
16,22:3
16,23:1
16,24:1
16,26:1
16,29:3
16,30:3
16,31:3
16,32:1
16,33:1
16,37:2
16,39:1
16,41:3
16,42:3
16,43:1
16,44:1
16,45:3
16,46:3
16,47:3
16,48:3
16,50:1
16,51:1
16,52:3
16,69:3
16,71:1
16,72:3
16,80:3
17,30:1
18,1:2
18,2:2
18,3:2
18,4:2
18,7:2
18,8:1
18,9:2
18,10:1
18,11:2
18,12:2
18,13:1
18,14:3
18,15:3
18,16:1
18,17:3
18,30:4
20,14:1
20,15:1
20,17:1
20,19:2
20,22:2
20,30:2
21,14:1
21,15:1
21,17:1
21,19:2
21,22:2
21,29:2
21,30:2
21,31:2
21,37:1
21,41:2
21,42:2
21,45:2
21,46:2
21,47:2
21,48:2
21,52:2
21,69:2
21,72:2
21,80:2
23,14:1
23,15:1
23,17:1
23,19:2
23,22:2
23,30:2
23,60:2
23,61:2
23,64:1
24,14:1
24,15:1
24,17:1
24,19:2
24,22:2
24,30:2
24,60:2
24,61:2
24,64:1
25,1:1
25,2:1
25,3:1
25,4:1
25,7:1
25,9:1
25,11:1
25,12:1
25,14:2
25,15:2
25,17:2
25,19:3
25,20:1
25,21:1
25,22:3
25,23:1
25,24:1
25,30:3
25,58:1
25,59:1
25,60:3
25,61:3
25,62:1
25,64:2
25,67:1
26,14:1
26,15:1
26,17:1
26,19:2
26,22:2
26,29:2
26,30:2
26,31:2
26,60:2
26,61:2
26,64:1
27,1:2
27,2:2
27,3:2
27,4:2
27,7:2
27,8:1
27,9:2
27,10:1
27,11:2
27,12:2
27,13:1
27,14:3
27,15:3
27,16:1
27,17:3
27,19:4
27,20:2
27,21:2
27,22:4
27,23:2
27,24:2
27,25:1
27,26:2
27,29:4
27,30:4
27,31:4
27,32:2
27,55:1
27,56:1
27,58:2
27,59:2
27,60:4
27,61:4
27,62:2
27,64:3
27,67:2
28,1:2
28,2:2
28,3:2
28,4:2
28,7:2
28,8:1
28,9:2
28,10:1
28,11:2
28,12:2
28,13:1
28,14:3
28,15:3
28,16:1
28,17:3
28,19:4
28,20:2
28,21:2
28,22:4
28,23:2
28,24:2
28,25:1
28,26:2
28,30:4
28,55:1
28,56:1
28,58:2
28,59:2
28,60:4
28,61:4
28,62:2
28,64:3
28,67:2
32,14:1
32,15:1
32,17:1
32,19:2
32,22:2
32,29:2
32,30:2
32,31:2
32,60:2
32,61:2
32,64:1
33,14:1
33,15:1
33,17:1
33,19:2
33,22:2
33,29:2
33,30:2
33,31:2
33,60:2
33,61:2
33,64:1
34,1:2
34,2:2
34,3:2
34,4:2
34,7:2
34,8:1
34,9:2
34,10:1
34,11:2
34,12:2
34,13:1
34,14:3
34,15:3
34,16:1
34,17:3
34,19:4
34,20:2
34,21:2
34,22:4
34,23:2
34,24:2
34,25:1
34,26:2
34,29:4
34,30:4
34,31:4
34,32:2
34,33:2
34,55:1
34,56:1
34,58:2
34,59:2
34,60:4
34,61:4
34,62:2
34,64:3
34,67:2
35,1:2
35,2:2
35,3:2
35,4:2
35,7:2
35,8:1
35,9:2
35,10:1
35,11:2
35,12:2
35,13:1
35,14:3
35,15:3
35,16:1
35,17:3
35,19:4
35,20:2
35,21:2
35,22:4
35,23:2
35,24:2
35,25:1
35,26:2
35,29:4
35,30:4
35,31:4
35,32:2
35,33:2
35,55:1
35,56:1
35,58:2
35,59:2
35,60:4
35,61:4
35,62:2
35,64:3
35,67:2
36,1:2
36,2:2
36,3:2
36,4:2
36,7:2
36,8:1
36,9:2
36,10:1
36,11:2
36,12:2
36,13:1
36,14:3
36,15:3
36,16:1
36,17:3
36,19:4
36,20:2
36,21:2
36,22:4
36,23:2
36,24:2
36,25:1
36,26:2
36,29:4
36,30:4
36,31:4
36,32:2
36,33:2
36,37:3
36,55:1
36,56:1
36,58:2
36,59:2
36,60:4
36,61:4
36,62:2
36,64:3
36,67:2
37,19:1
37,22:1
37,29:1
37,30:1
37,31:1
37,60:1
37,61:1
38,1:2
38,2:2
38,3:2
38,4:2
38,7:2
38,8:1
38,9:2
38,10:1
38,11:2
38,12:2
38,13:1
38,14:3
38,15:3
38,16:1
38,17:3
38,19:4
38,20:2
38,21:2
38,22:4
38,23:2
38,24:2
38,25:1
38,26:2
38,29:4
38,30:4
38,31:4
38,32:2
38,33:2
38,37:3
38,55:1
38,56:1
38,58:2
38,59:2
38,60:4
38,61:4
38,62:2
38,64:3
38,67:2
39,14:1
39,15:1
39,17:1
39,19:2
39,22:2
39,29:2
39,30:2
39,31:2
39,37:1
39,60:2
39,61:2
39,64:1
40,1:2
40,2:2
40,3:2
40,4:2
40,7:2
40,8:1
40,9:2
40,10:1
40,11:2
40,12:2
40,13:1
40,14:3
40,15:3
40,16:1
40,17:3
40,19:4
40,20:2
40,21:2
40,22:4
40,23:2
40,24:2
40,25:1
40,26:2
40,29:4
40,30:4
40,31:4
40,32:2
40,33:2
40,37:3
40,39:2
40,41:4
40,42:4
40,43:2
40,45:4
40,46:4
40,47:4
40,48:4
40,49:1
40,50:2
40,51:2
40,55:1
40,56:1
40,58:2
40,59:2
40,60:4
40,61:4
40,62:2
40,64:3
40,67:2
43,14:1
43,15:1
43,17:1
43,19:2
43,22:2
43,29:2
43,30:2
43,31:2
43,37:1
43,41:2
43,42:2
43,60:2
43,61:2
43,64:1
44,14:1
44,15:1
44,17:1
44,19:2
44,22:2
44,29:2
44,30:2
44,31:2
44,37:1
44,41:2
44,42:2
44,45:2
44,46:2
44,47:2
44,48:2
44,60:2
44,61:2
44,64:1
49,1:1
49,2:1
49,3:1
49,4:1
49,7:1
49,9:1
49,11:1
49,12:1
49,14:2
49,15:2
49,17:2
49,19:3
49,20:1
49,21:1
49,22:3
49,23:1
49,24:1
49,26:1
49,29:3
49,30:3
49,31:3
49,32:1
49,33:1
49,37:2
49,39:1
49,41:3
49,42:3
49,43:1
49,44:1
49,45:3
49,46:3
49,47:3
49,48:3
49,58:1
49,59:1
49,60:3
49,61:3
49,62:1
49,64:2
49,67:1
50,14:1
50,15:1
50,17:1
50,19:2
50,22:2
50,29:2
50,30:2
50,31:2
50,37:1
50,41:2
50,42:2
50,45:2
50,46:2
50,47:2
50,48:2
50,60:2
50,61:2
50,64:1
51,14:1
51,15:1
51,17:1
51,19:2
51,22:2
51,29:2
51,30:2
51,31:2
51,37:1
51,41:2
51,42:2
51,45:2
51,46:2
51,47:2
51,48:2
51,60:2
51,61:2
51,64:1
53,1:1
53,2:1
53,3:1
53,4:1
53,7:1
53,9:1
53,11:1
53,12:1
53,14:2
53,15:2
53,17:2
53,19:3
53,20:1
53,21:1
53,22:3
53,23:1
53,24:1
53,26:1
53,29:3
53,30:3
53,31:3
53,32:1
53,33:1
53,37:2
53,39:1
53,41:3
53,42:3
53,43:1
53,44:1
53,45:3
53,46:3
53,47:3
53,48:3
53,50:1
53,51:1
53,52:3
53,58:1
53,59:1
53,60:3
53,61:3
53,62:1
53,64:2
53,67:1
54,1:2
54,2:2
54,3:2
54,4:2
54,7:2
54,8:1
54,9:2
54,10:1
54,11:2
54,12:2
54,13:1
54,14:3
54,15:3
54,16:1
54,17:3
54,19:4
54,20:2
54,21:2
54,22:4
54,23:2
54,24:2
54,25:1
54,26:2
54,29:4
54,30:4
54,31:4
54,32:2
54,33:2
54,37:3
54,39:2
54,41:4
54,42:4
54,43:2
54,44:2
54,45:4
54,46:4
54,47:4
54,48:4
54,49:1
54,50:2
54,51:2
54,52:4
54,53:1
54,68:1
54,69:4
54,71:2
54,72:4
54,80:4
55,1:1
55,2:1
55,3:1
55,4:1
55,7:1
55,9:1
55,11:1
55,12:1
55,14:2
55,15:2
55,17:2
55,19:3
55,20:1
55,21:1
55,22:3
55,23:1
55,24:1
55,26:1
55,29:3
55,30:3
55,31:3
55,32:1
55,33:1
55,37:2
55,39:1
55,41:3
55,42:3
55,43:1
55,44:1
55,45:3
55,46:3
55,47:3
55,48:3
55,50:1
55,51:1
55,52:3
55,69:3
55,71:1
55,72:3
55,80:3
56,1:1
56,2:1
56,3:1
56,4:1
56,7:1
56,9:1
56,11:1
56,12:1
56,14:2
56,15:2
56,17:2
56,19:3
56,20:1
56,21:1
56,22:3
56,23:1
56,24:1
56,26:1
56,29:3
56,30:3
56,31:3
56,32:1
56,33:1
56,37:2
56,39:1
56,41:3
56,42:3
56,43:1
56,44:1
56,45:3
56,46:3
56,47:3
56,48:3
56,50:1
56,51:1
56,52:3
56,69:3
56,71:1
56,72:3
56,80:3
57,1:2
57,2:2
57,3:2
57,4:2
57,7:2
57,8:1
57,9:2
57,10:1
57,11:2
57,12:2
57,13:1
57,14:3
57,15:3
57,16:1
57,17:3
57,19:4
57,20:2
57,21:2
57,22:4
57,23:2
57,24:2
57,25:1
57,26:2
57,29:4
57,30:4
57,31:4
57,32:2
57,33:2
57,37:3
57,39:2
57,41:4
57,42:4
57,43:2
57,44:2
57,45:4
57,46:4
57,47:4
57,48:4
57,49:1
57,50:2
57,51:2
57,52:4
57,53:1
57,55:1
57,56:1
57,68:1
57,69:4
57,71:2
57,72:4
57,80:4
58,14:1
58,15:1
58,17:1
58,19:2
58,22:2
58,29:2
58,30:2
58,31:2
58,37:1
58,41:2
58,42:2
58,45:2
58,46:2
58,47:2
58,48:2
58,52:2
58,60:2
58,61:2
58,64:1
58,69:2
58,72:2
58,80:2
59,14:1
59,15:1
59,17:1
59,19:2
59,22:2
59,29:2
59,30:2
59,31:2
59,37:1
59,41:2
59,42:2
59,45:2
59,46:2
59,47:2
59,48:2
59,52:2
59,60:2
59,61:2
59,64:1
59,69:2
59,72:2
59,80:2
62,14:1
62,15:1
62,17:1
62,19:2
62,22:2
62,29:2
62,30:2
62,31:2
62,37:1
62,41:2
62,42:2
62,45:2
62,46:2
62,47:2
62,48:2
62,52:2
62,60:2
62,61:2
62,64:1
62,69:2
62,72:2
62,80:2
63,1:2
63,2:2
63,3:2
63,4:2
63,7:2
63,8:1
63,9:2
63,10:1
63,11:2
63,12:2
63,13:1
63,14:3
63,15:3
63,16:1
63,17:3
63,19:4
63,20:2
63,21:2
63,22:4
63,23:2
63,24:2
63,25:1
63,26:2
63,29:4
63,30:4
63,31:4
63,32:2
63,33:2
63,37:3
63,39:2
63,41:4
63,42:4
63,43:2
63,44:2
63,45:4
63,46:4
63,47:4
63,48:4
63,49:1
63,50:2
63,51:2
63,52:4
63,53:1
63,55:1
63,56:1
63,58:2
63,59:2
63,60:4
63,61:4
63,62:2
63,64:3
63,68:1
63,69:4
63,71:2
63,72:4
63,80:4
64,19:1
64,22:1
64,29:1
64,30:1
64,31:1
64,41:1
64,42:1
64,45:1
64,46:1
64,47:1
64,48:1
64,52:1
64,60:1
64,61:1
64,69:1
64,72:1
64,80:1
65,1:2
65,2:2
65,3:2
65,4:2
65,7:2
65,8:1
65,9:2
65,10:1
65,11:2
65,12:2
65,13:1
65,14:3
65,15:3
65,16:1
65,17:3
65,19:4
65,20:2
65,21:2
65,22:4
65,23:2
65,24:2
65,25:1
65,26:2
65,29:4
65,30:4
65,31:4
65,32:2
65,33:2
65,37:3
65,39:2
65,41:4
65,42:4
65,43:2
65,44:2
65,45:4
65,46:4
65,47:4
65,48:4
65,49:1
65,50:2
65,51:2
65,52:4
65,53:1
65,55:1
65,56:1
65,58:2
65,59:2
65,60:4
65,61:4
65,62:2
65,64:3
65,68:1
65,69:4
65,71:2
65,72:4
65,80:4
66,1:2
66,2:2
66,3:2
66,4:2
66,7:2
66,8:1
66,9:2
66,10:1
66,11:2
66,12:2
66,13:1
66,14:3
66,15:3
66,16:1
66,17:3
66,19:4
66,20:2
66,21:2
66,22:4
66,23:2
66,24:2
66,25:1
66,26:2
66,29:4
66,30:4
66,31:4
66,32:2
66,33:2
66,37:3
66,39:2
66,41:4
66,42:4
66,43:2
66,44:2
66,45:4
66,46:4
66,47:4
66,48:4
66,49:1
66,50:2
66,51:2
66,52:4
66,53:1
66,55:1
66,56:1
66,58:2
66,59:2
66,60:4
66,61:4
66,62:2
66,64:3
66,68:1
66,69:4
66,71:2
66,72:4
66,80:4
67,14:1
67,15:1
67,17:1
67,19:2
67,22:2
67,29:2
67,30:2
67,31:2
67,37:1
67,41:2
67,42:2
67,45:2
67,46:2
67,47:2
67,48:2
67,52:2
67,60:2
67,61:2
67,64:1
67,69:2
67,72:2
67,80:2
68,1:1
68,2:1
68,3:1
68,4:1
68,7:1
68,9:1
68,11:1
68,12:1
68,14:2
68,15:2
68,17:2
68,19:3
68,20:1
68,21:1
68,22:3
68,23:1
68,24:1
68,26:1
68,29:3
68,30:3
68,31:3
68,32:1
68,33:1
68,37:2
68,39:1
68,41:3
68,42:3
68,43:1
68,44:1
68,45:3
68,46:3
68,47:3
68,48:3
68,50:1
68,51:1
68,52:3
68,58:1
68,59:1
68,60:3
68,61:3
68,62:1
68,64:2
68,67:1
68,69:3
68,71:1
68,73:1
68,74:1
68,75:2
68,76:2
68,77:3
70,1:2
70,2:2
70,3:2
70,4:2
70,7:2
70,8:1
70,9:2
70,10:1
70,11:2
70,12:2
70,13:1
70,14:3
70,15:3
70,16:1
70,17:3
70,19:4
70,20:2
70,21:2
70,22:4
70,23:2
70,24:2
70,25:1
70,26:2
70,29:4
70,30:4
70,31:4
70,32:2
70,33:2
70,37:3
70,39:2
70,41:4
70,42:4
70,43:2
70,44:2
70,45:4
70,46:4
70,47:4
70,48:4
70,49:1
70,50:2
70,51:2
70,52:4
70,53:1
70,55:1
70,56:1
70,58:2
70,59:2
70,60:4
70,61:4
70,62:2
70,64:3
70,67:2
70,68:1
70,69:4
70,71:2
70,73:2
70,74:2
70,75:3
70,76:3
70,77:4
71,14:1
71,15:1
71,17:1
71,19:2
71,22:2
71,29:2
71,30:2
71,31:2
71,37:1
71,41:2
71,42:2
71,45:2
71,46:2
71,47:2
71,48:2
71,52:2
71,60:2
71,61:2
71,64:1
71,69:2
71,72:2
71,80:2
73,14:1
73,15:1
73,17:1
73,19:2
73,22:2
73,29:2
73,30:2
73,31:2
73,37:1
73,41:2
73,42:2
73,45:2
73,46:2
73,47:2
73,48:2
73,52:2
73,60:2
73,61:2
73,64:1
73,69:2
73,72:2
73,80:2
74,14:1
74,15:1
74,17:1
74,19:2
74,22:2
74,29:2
74,30:2
74,31:2
74,37:1
74,41:2
74,42:2
74,45:2
74,46:2
74,47:2
74,48:2
74,52:2
74,60:2
74,61:2
74,64:1
74,69:2
74,72:2
74,80:2
75,19:1
75,22:1
75,29:1
75,30:1
75,31:1
75,41:1
75,42:1
75,45:1
75,46:1
75,47:1
75,48:1
75,52:1
75,60:1
75,61:1
75,69:1
75,72:1
75,80:1
76,19:1
76,22:1
76,29:1
76,30:1
76,31:1
76,41:1
76,42:1
76,45:1
76,46:1
76,47:1
76,48:1
76,52:1
76,60:1
76,61:1
76,69:1
76,72:1
76,77:1
76,80:1
78,1:1
78,2:1
78,3:1
78,4:1
78,7:1
78,9:1
78,11:1
78,12:1
78,14:2
78,15:2
78,17:2
78,19:3
78,20:1
78,21:1
78,22:3
78,23:1
78,24:1
78,26:1
78,29:3
78,30:3
78,31:3
78,32:1
78,33:1
78,37:2
78,39:1
78,41:3
78,42:3
78,43:1
78,44:1
78,45:3
78,46:3
78,47:3
78,48:3
78,50:1
78,51:1
78,52:3
78,58:1
78,59:1
78,60:3
78,61:3
78,62:1
78,64:2
78,67:1
78,69:3
78,71:1
78,72:3
78,73:1
78,74:1
78,75:2
78,76:2
78,77:3
78,80:3
79,14:1
79,15:1
79,17:1
79,19:2
79,22:2
79,29:2
79,30:2
79,31:2
79,37:1
79,41:2
79,42:2
79,45:2
79,46:2
79,47:2
79,48:2
79,52:2
79,60:2
79,61:2
79,64:1
79,69:2
79,72:2
79,75:1
79,76:1
79,77:2
79,80:2
81,14:1
81,15:1
81,17:1
81,19:2
81,22:2
81,29:2
81,30:2
81,31:2
81,37:1
81,41:2
81,42:2
81,45:2
81,46:2
81,47:2
81,48:2
81,52:2
81,60:2
81,61:2
81,64:1
81,69:2
81,72:2
81,75:1
81,76:1
81,77:2
81,80:2
82,14:1
82,15:1
82,17:1
82,19:2
82,22:2
82,29:2
82,30:2
82,31:2
82,37:1
82,41:2
82,42:2
82,45:2
82,46:2
82,47:2
82,48:2
82,52:2
82,60:2
82,61:2
82,64:1
82,69:2
82,72:2
82,75:1
82,76:1
82,77:2
82,80:2
83,14:1
83,15:1
83,17:1
83,19:2
83,22:2
83,29:2
83,30:2
83,31:2
83,37:1
83,41:2
83,42:2
83,45:2
83,46:2
83,47:2
83,48:2
83,52:2
83,60:2
83,61:2
83,64:1
83,69:2
83,72:2
83,75:1
83,76:1
83,77:2
83,80:2
84,14:1
84,15:1
84,17:1
84,19:2
84,22:2
84,29:2
84,30:2
84,31:2
84,37:1
84,41:2
84,42:2
84,45:2
84,46:2
84,47:2
84,48:2
84,52:2
84,60:2
84,61:2
84,64:1
84,69:2
84,72:2
84,75:1
84,76:1
84,77:2
84,80:2
85,1:1
85,2:1
85,3:1
85,4:1
85,7:1
85,9:1
85,11:1
85,12:1
85,14:2
85,15:2
85,17:2
85,19:3
85,20:1
85,21:1
85,22:3
85,23:1
85,24:1
85,26:1
85,29:3
85,30:3
85,31:3
85,32:1
85,33:1
85,37:2
85,39:1
85,41:3
85,42:3
85,43:1
85,44:1
85,45:3
85,46:3
85,47:3
85,48:3
85,50:1
85,51:1
85,52:3
85,58:1
85,59:1
85,60:3
85,61:3
85,62:1
85,64:2
85,67:1
85,69:3
85,71:1
85,72:3
85,73:1
85,74:1
85,75:2
85,76:2
85,77:3
85,79:1
85,80:3
85,81:1
85,82:1
85,83:1
85,84:1
86,1:1
86,2:1
86,3:1
86,4:1
86,7:1
86,9:1
86,11:1
86,12:1
86,14:2
86,15:2
86,17:2
86,19:3
86,20:1
86,21:1
86,22:3
86,23:1
86,24:1
86,26:1
86,29:3
86,30:3
86,31:3
86,32:1
86,33:1
86,37:2
86,39:1
86,41:3
86,42:3
86,43:1
86,44:1
86,45:3
86,46:3
86,47:3
86,48:3
86,50:1
86,51:1
86,52:3
86,58:1
86,59:1
86,60:3
86,61:3
86,62:1
86,64:2
86,67:1
86,69:3
86,71:1
86,72:3
86,73:1
86,74:1
86,75:2
86,76:2
86,77:3
86,79:1
86,80:3
86,81:1
86,82:1
86,83:1
86,84:1
87,19:1
87,22:1
87,29:1
87,30:1
87,31:1
87,41:1
87,42:1
87,45:1
87,46:1
87,47:1
87,48:1
87,52:1
87,60:1
87,61:1
87,69:1
87,72:1
87,77:1
87,80:1
88,19:1
88,22:1
88,29:1
88,30:1
88,31:1
88,41:1
88,42:1
88,45:1
88,46:1
88,47:1
88,48:1
88,52:1
88,60:1
88,61:1
88,69:1
88,72:1
88,77:1
88,80:1
89,14:1
89,15:1
89,17:1
89,19:2
89,22:2
89,29:2
89,30:2
89,31:2
89,37:1
89,41:2
89,42:2
89,45:2
89,46:2
89,47:2
89,48:2
89,52:2
89,60:2
89,61:2
89,64:1
89,69:2
89,72:2
89,75:1
89,76:1
89,77:2
89,80:2
89,87:1
89,88:1

<end>

<optimal SALBP-1 value>
49


<rand seed>
467321153

